
Log started (V11.0.0) Fri May 16 23:04:17 2008

Tried aggregator 1 time.
Reduced MIP has 510 rows, 5001 columns, and 10010 nonzeros.
Presolve time =    0.05 sec.
Clique table members: 500.
MIP emphasis: balance optimality and feasibility.
MIP search method: dynamic search.
Parallel mode: none, using 1 thread.
Root relaxation solution time =    0.16 sec.

        Nodes                                         Cuts/
   Node  Left     Objective  IInf  Best Integer     Best Node    ItCnt     Gap

*     0+    0                        12716.0000     1910.3027      532   84.98%
*     0+    0                         1934.0000     1910.3027      532    1.23%
      0     0     1911.0000    19     1934.0000      Fract: 7      546    1.19%
*     0+    0                         1925.0000     1911.0000      546    0.73%
      0     0     1911.0000    21     1925.0000     Covers: 1      572    0.73%
      0     0     1911.0000    18     1925.0000     Covers: 2      616    0.73%
      0     0     1911.0000    21     1925.0000     Covers: 1      631    0.73%
      0     2     1911.0000    21     1925.0000     1911.0000      631    0.73%
    100    92     1913.0000    14     1925.0000     1911.0000     3853    0.73%
*   200+  178                         1924.0000     1911.0000     8374    0.68%
    200   180     1914.0000    20     1924.0000     1911.0000     8374    0.68%
    300   264     1916.0000    16     1924.0000     1911.0000    14356    0.68%
    400   348     1922.0000    15     1924.0000     1911.0000    23665    0.68%
*   466+  355                         1923.0000     1911.0000    26149    0.62%
    500   390     1911.0000    19     1923.0000     1911.0000    26824    0.62%
*   576+  447                         1921.0000     1911.0000    29755    0.52%
*   577+  298                         1916.0000     1911.0324    31500    0.26%
    600   304     1913.0000    16     1916.0000     1911.0390    31717    0.26%
    700   305     1914.0000    18     1916.0000     1911.0390    33594    0.26%
*   777+  166                         1914.0000     1911.0390    35864    0.15%
    800   171     1912.0000    12     1914.0000     1911.0399    36113    0.15%
*   877+  121                         1913.0000     1911.0399    37855    0.10%
    900   130     1912.0000    28     1913.0000     1911.0399    38529    0.10%
   1000   223     1912.0000    24     1913.0000     1912.0000    39814    0.05%
Elapsed time =  26.13 sec. (tree size =  0.35 MB, solutions = 9)
   1100   317     1912.0000    18     1913.0000     1912.0000    41895    0.05%
   1200   405     1912.0000    22     1913.0000     1912.0000    44520    0.05%
   1300   489     1912.0000    17     1913.0000     1912.0000    46576    0.05%
   1400   577     1912.0000    27     1913.0000     1912.0000    49423    0.05%
   1500   662     1912.0000    24     1913.0000     1912.0000    51791    0.05%
   1600   742     1912.0000    14     1913.0000     1912.0000    54573    0.05%
   1700   824     1912.0000    28     1913.0000     1912.0000    60325    0.05%
   1800   904     1912.0000    18     1913.0000     1912.0000    64124    0.05%
   1900  1000     1912.0000    32     1913.0000     1912.0000    66455    0.05%
   2000  1084     1912.0000    25     1913.0000     1912.0000    69483    0.05%
Elapsed time =  41.02 sec. (tree size =  1.70 MB, solutions = 9)
   2100  1170     1912.0000    28     1913.0000     1912.0000    72601    0.05%
   2200  1264     1912.0000    26     1913.0000     1912.0000    74215    0.05%
   2300  1364     1912.0000    32     1913.0000     1912.0000    75875    0.05%
   2400  1442     1912.0000    40     1913.0000     1912.0000    80663    0.05%
   2500  1518     1912.0000    31     1913.0000     1912.0000    85406    0.05%
   2600  1592     1912.0000    31     1913.0000     1912.0000    88717    0.05%
   2700  1674     1912.0000    24     1913.0000     1912.0000    92251    0.05%
*  2777+    1                         1912.0000     1912.0000    95070    0.00%

Cover cuts applied:  145
Mixed integer rounding cuts applied:  1
Gomory fractional cuts applied:  6

Solution pool: 10 solutions saved.

MIP - Integer optimal solution:  Objective = 1.9120000000e+003
Solution time =   53.81 sec.  Iterations = 95070  Nodes = 2777


Incumbent solution
Variable Name           Solution Value
Cmax                       1912.000000
X_1_6                         1.000000
X_2_10                        1.000000
X_3_7                         1.000000
X_4_10                        1.000000
X_5_2                         1.000000
X_6_10                        1.000000
X_7_7                         1.000000
X_8_4                         1.000000
X_9_4                         1.000000
X_10_5                        1.000000
X_11_8                        1.000000
X_12_6                        1.000000
X_13_10                       1.000000
X_14_4                        1.000000
X_15_10                       1.000000
X_16_4                        1.000000
X_17_4                        1.000000
X_18_3                        1.000000
X_19_4                        1.000000
X_20_3                        1.000000
X_21_4                        1.000000
X_22_3                        1.000000
X_23_7                        1.000000
X_24_6                        1.000000
X_25_10                       1.000000
X_26_2                        1.000000
X_27_10                       1.000000
X_28_4                        1.000000
X_29_10                       1.000000
X_30_7                        1.000000
X_31_2                        1.000000
X_32_10                       1.000000
X_33_1                        1.000000
X_34_2                        1.000000
X_35_2                        1.000000
X_36_5                        1.000000
X_37_2                        1.000000
X_38_2                        1.000000
X_39_2                        1.000000
X_40_10                       1.000000
X_41_3                        1.000000
X_42_5                        1.000000
X_43_4                        1.000000
X_44_4                        1.000000
X_45_3                        1.000000
X_46_4                        1.000000
X_47_7                        1.000000
X_48_4                        1.000000
X_49_2                        1.000000
X_50_9                        1.000000
X_51_10                       1.000000
X_52_10                       1.000000
X_53_1                        1.000000
X_54_2                        1.000000
X_55_9                        1.000000
X_56_4                        1.000000
X_57_7                        1.000000
X_58_2                        1.000000
X_59_4                        1.000000
X_60_7                        1.000000
X_61_9                        1.000000
X_62_10                       1.000000
X_63_10                       1.000000
X_64_4                        1.000000
X_65_10                       1.000000
X_66_6                        1.000000
X_67_7                        1.000000
X_68_10                       1.000000
X_69_4                        1.000000
X_70_6                        1.000000
X_71_2                        1.000000
X_72_4                        1.000000
X_73_8                        1.000000
X_74_6                        1.000000
X_75_1                        1.000000
X_76_6                        1.000000
X_77_7                        1.000000
X_78_3                        1.000000
X_79_3                        1.000000
X_80_6                        1.000000
X_81_10                       1.000000
X_82_2                        1.000000
X_83_2                        1.000000
X_84_7                        1.000000
X_85_4                        1.000000
X_86_6                        1.000000
X_87_2                        1.000000
X_88_7                        1.000000
X_89_7                        1.000000
X_90_4                        1.000000
X_91_4                        1.000000
X_92_4                        1.000000
X_93_4                        1.000000
X_94_2                        1.000000
X_95_10                       1.000000
X_96_6                        1.000000
X_97_4                        1.000000
X_98_9                        1.000000
X_99_6                        1.000000
X_100_10                      1.000000
X_101_2                       1.000000
X_102_4                       1.000000
X_103_10                      1.000000
X_104_6                       1.000000
X_105_10                      1.000000
X_106_10                      1.000000
X_107_7                       1.000000
X_108_2                       1.000000
X_109_7                       1.000000
X_110_2                       1.000000
X_111_4                       1.000000
X_112_1                       1.000000
X_113_7                       1.000000
X_114_10                      1.000000
X_115_10                      1.000000
X_116_10                      1.000000
X_117_7                       1.000000
X_118_3                       1.000000
X_119_9                       1.000000
X_120_9                       1.000000
X_121_7                       1.000000
X_122_2                       1.000000
X_123_7                       1.000000
X_124_10                      1.000000
X_125_1                       1.000000
X_126_5                       1.000000
X_127_10                      1.000000
X_128_8                       1.000000
X_129_9                       1.000000
X_130_4                       1.000000
X_131_5                       1.000000
X_132_10                      1.000000
X_133_4                       1.000000
X_134_4                       1.000000
X_135_2                       1.000000
X_136_4                       1.000000
X_137_9                       1.000000
X_138_10                      1.000000
X_139_9                       1.000000
X_140_2                       1.000000
X_141_2                       1.000000
X_142_6                       1.000000
X_143_7                       1.000000
X_144_7                       1.000000
X_145_2                       1.000000
X_146_2                       1.000000
X_147_2                       1.000000
X_148_1                       1.000000
X_149_6                       1.000000
X_150_10                      1.000000
X_151_10                      1.000000
X_152_2                       1.000000
X_153_1                       1.000000
X_154_4                       1.000000
X_155_7                       1.000000
X_156_10                      1.000000
X_157_3                       1.000000
X_158_10                      1.000000
X_159_2                       1.000000
X_160_5                       1.000000
X_161_2                       1.000000
X_162_2                       1.000000
X_163_8                       1.000000
X_164_2                       1.000000
X_165_10                      1.000000
X_166_2                       1.000000
X_167_7                       1.000000
X_168_1                       1.000000
X_169_4                       1.000000
X_170_3                       1.000000
X_171_10                      1.000000
X_172_2                       1.000000
X_173_2                       1.000000
X_174_7                       1.000000
X_175_3                       1.000000
X_176_4                       1.000000
X_177_10                      1.000000
X_178_4                       1.000000
X_179_7                       1.000000
X_180_7                       1.000000
X_181_1                       1.000000
X_182_5                       1.000000
X_183_3                       1.000000
X_184_3                       1.000000
X_185_7                       1.000000
X_186_10                      1.000000
X_187_10                      1.000000
X_188_10                      1.000000
X_189_7                       1.000000
X_190_2                       1.000000
X_191_10                      1.000000
X_192_10                      1.000000
X_193_5                       1.000000
X_194_2                       1.000000
X_195_2                       1.000000
X_196_4                       1.000000
X_197_7                       1.000000
X_198_10                      1.000000
X_199_10                      1.000000
X_200_4                       1.000000
X_201_10                      1.000000
X_202_6                       1.000000
X_203_10                      1.000000
X_204_4                       1.000000
X_205_2                       1.000000
X_206_10                      1.000000
X_207_4                       1.000000
X_208_10                      1.000000
X_209_10                      1.000000
X_210_10                      1.000000
X_211_4                       1.000000
X_212_9                       1.000000
X_213_10                      1.000000
X_214_4                       1.000000
X_215_9                       1.000000
X_216_2                       1.000000
X_217_10                      1.000000
X_218_3                       1.000000
X_219_2                       1.000000
X_220_4                       1.000000
X_221_4                       1.000000
X_222_2                       1.000000
X_223_2                       1.000000
X_224_10                      1.000000
X_225_4                       1.000000
X_226_2                       1.000000
X_227_8                       1.000000
X_228_10                      1.000000
X_229_7                       1.000000
X_230_4                       1.000000
X_231_7                       1.000000
X_232_2                       1.000000
X_233_5                       1.000000
X_234_10                      1.000000
X_235_10                      1.000000
X_236_7                       1.000000
X_237_8                       1.000000
X_238_2                       1.000000
X_239_10                      1.000000
X_240_3                       1.000000
X_241_4                       1.000000
X_242_4                       1.000000
X_243_8                       1.000000
X_244_4                       1.000000
X_245_1                       1.000000
X_246_2                       1.000000
X_247_10                      1.000000
X_248_3                       1.000000
X_249_8                       1.000000
X_250_2                       1.000000
X_251_4                       1.000000
X_252_6                       1.000000
X_253_4                       1.000000
X_254_7                       1.000000
X_255_2                       1.000000
X_256_10                      1.000000
X_257_2                       1.000000
X_258_10                      1.000000
X_259_10                      1.000000
X_260_5                       1.000000
X_261_10                      1.000000
X_262_2                       1.000000
X_263_9                       1.000000
X_264_2                       1.000000
X_265_7                       1.000000
X_266_4                       1.000000
X_267_7                       1.000000
X_268_2                       1.000000
X_269_4                       1.000000
X_270_2                       1.000000
X_271_4                       1.000000
X_272_3                       1.000000
X_273_5                       1.000000
X_274_10                      1.000000
X_275_4                       1.000000
X_276_4                       1.000000
X_277_9                       1.000000
X_278_10                      1.000000
X_279_2                       1.000000
X_280_4                       1.000000
X_281_2                       1.000000
X_282_1                       1.000000
X_283_2                       1.000000
X_284_2                       1.000000
X_285_5                       1.000000
X_286_4                       1.000000
X_287_7                       1.000000
X_288_4                       1.000000
X_289_5                       1.000000
X_290_3                       1.000000
X_291_8                       1.000000
X_292_10                      1.000000
X_293_2                       1.000000
X_294_4                       1.000000
X_295_6                       1.000000
X_296_8                       1.000000
X_297_7                       1.000000
X_298_7                       1.000000
X_299_10                      1.000000
X_300_1                       1.000000
X_301_10                      1.000000
X_302_2                       1.000000
X_303_2                       1.000000
X_304_10                      1.000000
X_305_6                       1.000000
X_306_6                       1.000000
X_307_2                       1.000000
X_308_7                       1.000000
X_309_8                       1.000000
X_310_10                      1.000000
X_311_2                       1.000000
X_312_4                       1.000000
X_313_3                       1.000000
X_314_7                       1.000000
X_315_1                       1.000000
X_316_4                       1.000000
X_317_10                      1.000000
X_318_9                       1.000000
X_319_2                       1.000000
X_320_6                       1.000000
X_321_10                      1.000000
X_322_10                      1.000000
X_323_2                       1.000000
X_324_7                       1.000000
X_325_1                       1.000000
X_326_4                       1.000000
X_327_9                       1.000000
X_328_2                       1.000000
X_329_8                       1.000000
X_330_7                       1.000000
X_331_2                       1.000000
X_332_2                       1.000000
X_333_6                       1.000000
X_334_10                      1.000000
X_335_2                       1.000000
X_336_4                       1.000000
X_337_10                      1.000000
X_338_4                       1.000000
X_339_10                      1.000000
X_340_2                       1.000000
X_341_8                       1.000000
X_342_7                       1.000000
X_343_1                       1.000000
X_344_8                       1.000000
X_345_2                       1.000000
X_346_10                      1.000000
X_347_4                       1.000000
X_348_7                       1.000000
X_349_2                       1.000000
X_350_2                       1.000000
X_351_4                       1.000000
X_352_4                       1.000000
X_353_3                       1.000000
X_354_4                       1.000000
X_355_3                       1.000000
X_356_5                       1.000000
X_357_4                       1.000000
X_358_8                       1.000000
X_359_8                       1.000000
X_360_7                       1.000000
X_361_4                       1.000000
X_362_6                       1.000000
X_363_4                       1.000000
X_364_9                       1.000000
X_365_2                       1.000000
X_366_2                       1.000000
X_367_9                       1.000000
X_368_10                      1.000000
X_369_6                       1.000000
X_370_10                      1.000000
X_371_10                      1.000000
X_372_10                      1.000000
X_373_10                      1.000000
X_374_7                       1.000000
X_375_10                      1.000000
X_376_4                       1.000000
X_377_4                       1.000000
X_378_4                       1.000000
X_379_4                       1.000000
X_380_10                      1.000000
X_381_9                       1.000000
X_382_7                       1.000000
X_383_9                       1.000000
X_384_2                       1.000000
X_385_7                       1.000000
X_386_10                      1.000000
X_387_10                      1.000000
X_388_10                      1.000000
X_389_4                       1.000000
X_390_7                       1.000000
X_391_4                       1.000000
X_392_10                      1.000000
X_393_10                      1.000000
X_394_4                       1.000000
X_395_6                       1.000000
X_396_2                       1.000000
X_397_4                       1.000000
X_398_4                       1.000000
X_399_2                       1.000000
X_400_6                       1.000000
X_401_4                       1.000000
X_402_2                       1.000000
X_403_4                       1.000000
X_404_5                       1.000000
X_405_10                      1.000000
X_406_6                       1.000000
X_407_5                       1.000000
X_408_2                       1.000000
X_409_10                      1.000000
X_410_3                       1.000000
X_411_7                       1.000000
X_412_2                       1.000000
X_413_10                      1.000000
X_414_2                       1.000000
X_415_10                      1.000000
X_416_5                       1.000000
X_417_2                       1.000000
X_418_2                       1.000000
X_419_3                       1.000000
X_420_10                      1.000000
X_421_6                       1.000000
X_422_3                       1.000000
X_423_7                       1.000000
X_424_2                       1.000000
X_425_1                       1.000000
X_426_10                      1.000000
X_427_10                      1.000000
X_428_2                       1.000000
X_429_4                       1.000000
X_430_2                       1.000000
X_431_9                       1.000000
X_432_5                       1.000000
X_433_1                       1.000000
X_434_10                      1.000000
X_435_7                       1.000000
X_436_1                       1.000000
X_437_2                       1.000000
X_438_4                       1.000000
X_439_6                       1.000000
X_440_2                       1.000000
X_441_10                      1.000000
X_442_5                       1.000000
X_443_5                       1.000000
X_444_7                       1.000000
X_445_7                       1.000000
X_446_4                       1.000000
X_447_10                      1.000000
X_448_10                      1.000000
X_449_10                      1.000000
X_450_2                       1.000000
X_451_5                       1.000000
X_452_4                       1.000000
X_453_10                      1.000000
X_454_9                       1.000000
X_455_4                       1.000000
X_456_4                       1.000000
X_457_4                       1.000000
X_458_7                       1.000000
X_459_2                       1.000000
X_460_2                       1.000000
X_461_2                       1.000000
X_462_2                       1.000000
X_463_5                       1.000000
X_464_4                       1.000000
X_465_10                      1.000000
X_466_3                       1.000000
X_467_2                       1.000000
X_468_8                       1.000000
X_469_10                      1.000000
X_470_8                       1.000000
X_471_10                      1.000000
X_472_1                       1.000000
X_473_9                       1.000000
X_474_10                      1.000000
X_475_4                       1.000000
X_476_4                       1.000000
X_477_10                      1.000000
X_478_6                       1.000000
X_479_4                       1.000000
X_480_2                       1.000000
X_481_4                       1.000000
X_482_4                       1.000000
X_483_8                       1.000000
X_484_5                       1.000000
X_485_2                       1.000000
X_486_2                       1.000000
X_487_10                      1.000000
X_488_2                       1.000000
X_489_3                       1.000000
X_490_2                       1.000000
X_491_8                       1.000000
X_492_10                      1.000000
X_493_4                       1.000000
X_494_9                       1.000000
X_495_4                       1.000000
X_496_4                       1.000000
X_497_8                       1.000000
X_498_7                       1.000000
X_499_7                       1.000000
X_500_9                       1.000000
All other variables in the range 1-5001 are 0.
